Route 1: 65 60 2 24 61 40 94
Route 2: 4
Route 3: 5 129 82 37 108 123 107
Route 4: 96 117 93 105 11 80 77 62 86 12 106 18 102
Route 5: 19 83 125 10 64 120
Route 6: 21 53 28 114 45 91
Route 7: 22 35 3 56 41 42 59
Route 8: 25 39 48 92 16
Route 9: 126 32 121 52 110 84
Route 10: 46 49 34 47 14 58 36 57
Route 11: 44 85 26 78 63 31 68
Route 12: 111 66 50 97 74 101
Route 13: 119 29 15 75 71 6 124 54 128
Route 14: 81 69 99 116 118
Route 15: 87 76 67 104 90 89 51 79
Route 16: 8 55 23 30 7 20 112 95 122 88
Route 17: 100 43 17 33 115 13 38 9 70 98
Route 18: 103 113 73 109 72 127 27
Cost 30689.84
